<?xml version = "1.0" encoding="UTF-8" standalone="yes"?>
<CPLEXSolution version="1.2">
 <header
   problemName=""
   solutionName="p0"
   solutionIndex="-1"
   objectiveValue="29"
   solutionTypeValue="3"
   solutionTypeString="primal"
   solutionStatusValue="127"
   solutionStatusString="integer feasible solution"
   solutionMethodString="mip"
   primalFeasible="0"
   dualFeasible="0"
   writeLevel="1"/>
 <quality
   epInt="1.0000000000000001e-05"
   epRHS="9.9999999999999995e-07"
   maxIntInfeas="0"
   maxPrimalInfeas="1.000000082740371e-09"
   maxX="29"
   maxSlack="60"/>
 <linearConstraints>
  <constraint index="0" slack="-11"/>
  <constraint index="1" slack="-2.9999999999999964"/>
  <constraint index="2" slack="0"/>
  <constraint index="3" slack="3.5527136788005009e-15"/>
  <constraint index="4" slack="0"/>
  <constraint index="5" slack="1.7763568394002505e-15"/>
  <constraint index="6" slack="-9"/>
  <constraint index="7" slack="1.000000082740371e-09"/>
  <constraint index="8" slack="-58"/>
  <constraint index="9" slack="-2"/>
  <constraint index="10" slack="0"/>
  <constraint index="11" slack="-60"/>
  <constraint index="12" slack="-48"/>
  <constraint index="13" slack="-7"/>
  <constraint index="14" slack="-3"/>
  <constraint index="15" slack="-53"/>
  <constraint index="16" slack="-51"/>
  <constraint index="17" slack="0"/>
  <constraint index="18" slack="-43"/>
  <constraint index="19" slack="-8"/>
  <constraint index="20" slack="-9"/>
  <constraint index="21" slack="-46"/>
  <constraint index="22" slack="-1.7763568394002505e-15"/>
  <constraint index="23" slack="-55"/>
  <constraint index="24" slack="-54.000000001000004"/>
  <constraint index="25" slack="-2.9999999989999964"/>
  <constraint index="26" slack="-49"/>
  <constraint index="27" slack="-1"/>
  <constraint index="28" slack="-37.000000001000004"/>
  <constraint index="29" slack="-14.999999998999996"/>
  <constraint index="30" slack="-46.000000000999997"/>
  <constraint index="31" slack="-5.9999999990000035"/>
  <constraint index="32" slack="0"/>
  <constraint index="33" slack="-54"/>
  <constraint index="34" slack="-13.999999999999996"/>
  <constraint index="35" slack="-46"/>
  <constraint index="36" slack="-18.999999999999996"/>
  <constraint index="37" slack="-41"/>
  <constraint index="38" slack="-3.9999999999999964"/>
  <constraint index="39" slack="-48"/>
  <constraint index="40" slack="-8.9999999999999964"/>
  <constraint index="41" slack="-43"/>
  <constraint index="42" slack="-1"/>
  <constraint index="43" slack="-57"/>
  <constraint index="44" slack="-4.0000000000000036"/>
  <constraint index="45" slack="-6.0000000000000036"/>
  <constraint index="46" slack="-12"/>
  <constraint index="47" slack="-1.000000082740371e-09"/>
 </linearConstraints>
 <variables>
  <variable name="x_0_0" index="0" value="5"/>
  <variable name="x_0_1" index="1" value="8"/>
  <variable name="x_0_2" index="2" value="0"/>
  <variable name="x_0_3" index="3" value="13"/>
  <variable name="x_1_0" index="4" value="17"/>
  <variable name="x_1_1" index="5" value="0"/>
  <variable name="x_1_2" index="6" value="8.9999999999999982"/>
  <variable name="x_1_3" index="7" value="22.999999999"/>
  <variable name="x_2_0" index="8" value="22.999999999999996"/>
  <variable name="x_2_1" index="9" value="12.999999999999996"/>
  <variable name="x_2_2" index="10" value="5"/>
  <variable name="x_2_3" index="11" value="0"/>
  <variable name="z_0_0_1" index="12" value="1"/>
  <variable name="z_0_0_2" index="13" value="0"/>
  <variable name="z_0_0_3" index="14" value="1"/>
  <variable name="z_0_1_2" index="15" value="0"/>
  <variable name="z_0_1_3" index="16" value="1"/>
  <variable name="z_0_2_3" index="17" value="1"/>
  <variable name="z_1_0_1" index="18" value="0"/>
  <variable name="z_1_0_2" index="19" value="0"/>
  <variable name="z_1_0_3" index="20" value="1"/>
  <variable name="z_1_1_2" index="21" value="1"/>
  <variable name="z_1_1_3" index="22" value="1"/>
  <variable name="z_1_2_3" index="23" value="1"/>
  <variable name="z_2_0_1" index="24" value="0"/>
  <variable name="z_2_0_2" index="25" value="0"/>
  <variable name="z_2_0_3" index="26" value="0"/>
  <variable name="z_2_1_2" index="27" value="0"/>
  <variable name="z_2_1_3" index="28" value="0"/>
  <variable name="z_2_2_3" index="29" value="0"/>
  <variable name="cmax" index="30" value="29"/>
 </variables>
</CPLEXSolution>
